solving instance uflp nldep holmberg 28 sqrt
Couenne 0.5.8 -- an Open-Source solver for Mixed Integer Nonlinear Optimization
Mailing list: couenne@list.coin-or.org
Instructions: http://www.coin-or.org/Couenne
couenne: 
ANALYSIS TEST: Reformulating problem: 5.9 seconds
NLP0012I 
              Num      Status      Obj             It       time                 Location
NLP0014I             1        TIME 0      235 2964.1195
Loaded instance "/tmp/jl_H3WwCq/model.nl"
Constraints:         4710
Variables:           4590 (30 integer)
Auxiliaries:          239 (0 integer)

Coin0506I Presolve 4891 (-30) rows, 4621 (-208) columns and 22981 (-238) elements
Clp0006I 0  Obj 0.00021 Primal inf 149.99985 (150)
Clp0006I 148  Obj 0.00021 Primal inf 1065.9 (287)
Clp0006I 273  Obj 0.00021000004 Primal inf 34620.736 (615)
Clp0006I 400  Obj 0.00021478098 Primal inf 68748.373 (497)
Clp0006I 540  Obj 0.00032076421 Primal inf 11979.074 (606)
Clp0006I 672  Obj 0.00098510791 Primal inf 17110.233 (435)
Clp0006I 827  Obj 6903.6503 Primal inf 294.58461 (363)
Clp0006I 999  Obj 8583.8925 Primal inf 3.183155 (10)
Clp0006I 1004  Obj 8589.0003
Clp0000I Optimal - objective value 8589.0002
Clp0032I Optimal objective 8589.000203 - 1004 iterations time 0.312, Presolve 0.02
Clp0000I Optimal - objective value 8589.0002
NLP Heuristic: 